(set-logic QF_S)
(declare-fun var0 () String)
(declare-fun var1 () String)
(declare-fun var2 () String)
(declare-fun var3 () String)
(declare-fun var4 () String)
(declare-fun var5 () String)
(declare-fun var6 () String)
(declare-fun var7 () String)
(declare-fun var8 () String)
(declare-fun var9 () String)
(declare-fun var10 () String)
(declare-fun var11 () String)
(declare-fun var12 () String)
(declare-fun var13 () String)
(declare-fun var14 () String)
(declare-fun var15 () String)
(declare-fun var16 () String)
(declare-fun var17 () String)
(declare-fun var18 () String)
(declare-fun var19 () String)
(declare-fun var20 () String)
(declare-fun var21 () String)
(declare-fun var22 () String)
(declare-fun var23 () String)
(declare-fun var24 () String)
(declare-fun var25 () String)
(declare-fun var26 () String)
(declare-fun var27 () String)
(declare-fun var28 () String)
(declare-fun var29 () String)
(declare-fun var30 () String)
(declare-fun var31 () String)
(declare-fun var32 () String)
(declare-fun var33 () String)
(declare-fun var34 () String)
(declare-fun var35 () String)
(declare-fun var36 () String)
(declare-fun var37 () String)
(declare-fun var38 () String)
(declare-fun var39 () String)
(declare-fun var40 () String)
(declare-fun var41 () String)
(declare-fun var42 () String)
(declare-fun var43 () String)
(declare-fun var44 () String)
(declare-fun var45 () String)
(declare-fun var46 () String)
(declare-fun var47 () String)
(declare-fun var48 () String)
(declare-fun var49 () String)
(declare-fun var50 () String)
(declare-fun var51 () String)
(declare-fun var52 () String)
(declare-fun var53 () String)
(declare-fun var54 () String)
(declare-fun var55 () String)
(declare-fun var56 () String)
(declare-fun var57 () String)
(declare-fun var58 () String)
(declare-fun var59 () String)
(declare-fun var60 () String)
(declare-fun var61 () String)
(declare-fun var62 () String)
(declare-fun var63 () String)
(declare-fun var64 () String)
(declare-fun var65 () String)
(declare-fun var66 () String)
(declare-fun var67 () String)
(declare-fun var68 () String)
(declare-fun var69 () String)
(declare-fun var70 () String)
(declare-fun var71 () String)
(declare-fun var72 () String)
(declare-fun var73 () String)
(declare-fun var74 () String)
(declare-fun var75 () String)
(declare-fun var76 () String)
(declare-fun var77 () String)
(declare-fun var78 () String)
(declare-fun var79 () String)
(declare-fun var80 () String)
(declare-fun var81 () String)
(declare-fun var82 () String)
(declare-fun var83 () String)
(declare-fun var84 () String)
(declare-fun var85 () String)
(declare-fun var86 () String)
(declare-fun var87 () String)
(declare-fun var88 () String)
(declare-fun var89 () String)
(declare-fun var90 () String)
(declare-fun var91 () String)
(declare-fun var92 () String)
(declare-fun var93 () String)
(declare-fun var94 () String)
(declare-fun var95 () String)
(declare-fun var96 () String)
(declare-fun var97 () String)
(declare-fun var98 () String)
(declare-fun var99 () String)
(assert (= 68 (Length var0)))
(assert (= 94 (Length var1)))
(assert (= 18 (Length var2)))
(assert (= 72 (Length var3)))
(assert (= 12 (Length var4)))
(assert (= 94 (Length var5)))
(assert (= 99 (Length var6)))
(assert (= 36 (Length var7)))
(assert (= 57 (Length var8)))
(assert (= 79 (Length var9)))
(assert (= 14 (Length var10)))
(assert (= 17 (Length var11)))
(assert (= 100 (Length var12)))
(assert (= 38 (Length var13)))
(assert (= 68 (Length var14)))
(assert (= 31 (Length var15)))
(assert (= 83 (Length var16)))
(assert (= 64 (Length var17)))
(assert (= 43 (Length var18)))
(assert (= 98 (Length var19)))
(assert (= 86 (Length var20)))
(assert (= 52 (Length var21)))
(assert (= 73 (Length var22)))
(assert (= 42 (Length var23)))
(assert (= 98 (Length var24)))
(assert (= 8 (Length var25)))
(assert (= 46 (Length var26)))
(assert (= 63 (Length var27)))
(assert (= 1 (Length var28)))
(assert (= 14 (Length var29)))
(assert (= 18 (Length var30)))
(assert (= 17 (Length var31)))
(assert (= 85 (Length var32)))
(assert (= 32 (Length var33)))
(assert (= 35 (Length var34)))
(assert (= 16 (Length var35)))
(assert (= 30 (Length var36)))
(assert (= 20 (Length var37)))
(assert (= 44 (Length var38)))
(assert (= 43 (Length var39)))
(assert (= 87 (Length var40)))
(assert (= 64 (Length var41)))
(assert (= 28 (Length var42)))
(assert (= 96 (Length var43)))
(assert (= 30 (Length var44)))
(assert (= 75 (Length var45)))
(assert (= 5 (Length var46)))
(assert (= 65 (Length var47)))
(assert (= 85 (Length var48)))
(assert (= 24 (Length var49)))
(assert (= 69 (Length var50)))
(assert (= 62 (Length var51)))
(assert (= 47 (Length var52)))
(assert (= 22 (Length var53)))
(assert (= 50 (Length var54)))
(assert (= 60 (Length var55)))
(assert (= 63 (Length var56)))
(assert (= 26 (Length var57)))
(assert (= 57 (Length var58)))
(assert (= 69 (Length var59)))
(assert (= 49 (Length var60)))
(assert (= 89 (Length var61)))
(assert (= 38 (Length var62)))
(assert (= 29 (Length var63)))
(assert (= 15 (Length var64)))
(assert (= 66 (Length var65)))
(assert (= 93 (Length var66)))
(assert (= 59 (Length var67)))
(assert (= 53 (Length var68)))
(assert (= 79 (Length var69)))
(assert (= 93 (Length var70)))
(assert (= 34 (Length var71)))
(assert (= 40 (Length var72)))
(assert (= 11 (Length var73)))
(assert (= 12 (Length var74)))
(assert (= 98 (Length var75)))
(assert (= 19 (Length var76)))
(assert (= 82 (Length var77)))
(assert (= 28 (Length var78)))
(assert (= 63 (Length var79)))
(assert (= 68 (Length var80)))
(assert (= 23 (Length var81)))
(assert (= 7 (Length var82)))
(assert (= 58 (Length var83)))
(assert (= 23 (Length var84)))
(assert (= 67 (Length var85)))
(assert (= 95 (Length var86)))
(assert (= 61 (Length var87)))
(assert (= 16 (Length var88)))
(assert (= 3 (Length var89)))
(assert (= 30 (Length var90)))
(assert (= 23 (Length var91)))
(assert (= 25 (Length var92)))
(assert (= 76 (Length var93)))
(assert (= 4 (Length var94)))
(assert (= 43 (Length var95)))
(assert (= 44 (Length var96)))
(assert (= 99 (Length var97)))
(assert (= 61 (Length var98)))
(assert (= 39 (Length var99)))
(assert (= 68 (Length (Concat var42 var72))))
(assert (= 103 (Length (Concat var99 var41))))
(assert (= 58 (Length (Concat var10 var38))))
(assert (= 85 (Length (Concat var81 var51))))
(assert (= 95 (Length (Concat var9 var88))))
(assert (= 101 (Length (Concat var62 var79))))
(assert (= 163 (Length (Concat var93 var40))))
(assert (= 128 (Length (Concat var75 var44))))
(assert (= 160 (Length (Concat var55 var12))))
(assert (= 49 (Length (Concat var15 var2))))
(check-sat)